47 57 84 70 5 90 38 17 83 91 39 77 7 3 99 74 32 35 8 75 25 66 11 96 4 69 26 51 62 12 36 67 29 72 44 37 13 50 34 2 48 86 20 87 97 89 76 80 16 28 30 33 60 82 49 23 45 68 61 22 95 10 0 31 98 64 55 9 81 27 78 21 71 52 73 79 53 59 15 56 63 18 58 1 46 94 85 41 6 54 19 88 92 43 24 40 42 65 93 14